amp_frame11_dry_md_fixed.gbw      
amp_frame11_dry_md_fixed.scfp     
 4           
0           
0           
-1           
-1           
-1           
-1           
-1           
-1           
-1           
-1           
-1           
-1           
-1           
-1           
-1           
-1           
-1           
-1           
-1           
-1           
-1           
-1           
-1           
-1           
-1           
-1           
-1           
-1           
-1           
-1           
-1           
-1           
-1           
-1           
-1           
-1           
-1           
-1           
-1           
-1           
-1           
-1           
-1           
-1           
-1           
-1           
-1           
-1           
-1           
-1           
-1           
-1           
-1           
-1           
-1           
-1           
-1           
-1           
-1           
-1           
-1           
-1           
-1           
-1           
-1           
-1           
-1           
-1           
-1           
-1           
-1           
-1           
-1           
-1           
-1           
-1           
-1           
-1           
-1           
-1           
-1           
-1           
-1           
-1           
-1           
-1           
-1           
-1           
-1           
-1           
-1           
-1           
-1           
-1           
-1           
-1           
-1           
-1           
-1           
-1           
-1           
-1           
-1           
-1           
-1           
-1           
-1           
-1           
-1           
-1           
-1           
-1           
-1           
-1           
-1           
-1           
-1           
-1           
-1           
-1           
-1           
-1           
-1           
-1           
-1           
-1           
-1           
-1           
-1           
-1           
-1           
-1           
-1           
-1           
-1           
-1           
-1           
-1           
-1           
-1           
-1           
-1           
-1           
-1           
-1           
-1           
-1           
-1           
-1           
-1           
-1           
-1           
-1           
-1           
-1           
-1           
-1           
-1           
-1           
-1           
-1           
-1           
-1           
-1           
-1           
-1           
-1           
-1           
-1           
-1           
-1           
-1           
-1           
-1           
-1           
-1           
-1           
-1           
-1           
-1           
-1           
-1           
-1           
-1           
-1           
-1           
-1           
-1           
-1           
-1           
-1           
-1           
-1           
-1           
-1           
-1           
-1           
-1           
-1           
-1           
-1           
-1           
-1           
-1           
-1           
-1           
-1           
-1           
-1           
-1           
-1           
-1           
-1           
-1           
-1           
-1           
-1           
-1           
-1           
-1           
-1           
-1           
-1           
-1           
-1           
-1           
-1           
-1           
-1           
-1           
-1           
-1           
-1           
-1           
-1           
-1           
-1           
-1           
-1           
-1           
-1           
-1           
-1           
-1           
-1           
-1           
-1           
-1           
-1           
-1           
-1           
-1           
-1           
-1           
-1           
-1           
-1           
-1           
-1           
-1           
-1           
-1           
-1           
-1           
-1           
-1           
-1           
-1           
-1           
-1           
-1           
-1           
-1           
-1           
-1           
-1           
-1           
-1           
-1           
-1           
-1           
-1           
-1           
-1           
-1           
-1           
-1           
-1           
-1           
-1           
-1           
-1           
-1           
-1           
-1           
-1           
-1           
-1           
-1           
-1           
-1           
-1           
-1           
-1           
-1           
-1           
-1           
-1           
-1           
-1           
-1           
-1           
-1           
-1           
-1           
-1           
-1           
-1           
-1           
-1           
-1           
-1           
-1           
-1           
-1           
-1           
-1           
-1           
-1           
-1           
-1           
-1           
-1           
-1           
-1           
-1           
-1           
-1           
-1           
-1           
-1           
-1           
-1           
-1           
-1           
-1           
-1           
-1           
-1           
-1           
-1           
-1           
-1           
-1           
-1           
-1           
-1           
-1           
-1           
-1           
-1           
-1           
-1           
-1           
-1           
-1           
-1           
-1           
-1           
-1           
-1           
-1           
-1           
-1           
-1           
-1           
-1           
-1           
-1           
-1           
-1           
-1           
-1           
-1           
-1           
-1           
-1           
-1           
-1           
-1           
-1           
-1           
-1           
-1           
-1           
-1           
-1           
-1           
-1           
-1           
-1           
-1           
-1           
-1           
-1           
-1           
-1           
-1           
-1           
-1           
-1           
-1           
-1           
-1           
-1           
-1           
-1           
-1           
-1           
-1           
-1           
-1           
-1           
-1           
-1           
-1           
-1           
-1           
-1           
-1           
-1           
-1           
-1           
-1           
-1           
-1           
-1           
-1           
-1           
-1           
-1           
-1           
-1           
-1           
-1           
-1           
-1           
-1           
-1           
-1           
-1           
-1           
-1           
-1           
-1           
-1           
-1           
-1           
-1           
-1           
-1           
-1           
-1           
-1           
-1           
-1           
-1           
-1           
-1           
-1           
-1           
-1           
-1           
-1           
-1           
-1           
-1           
-1           
-1           
-1           
-1           
-1           
-1           
-1           
-1           
-1           
-1           
-1           
-1           
-1           
-1           
-1           
-1           
-1           
-1           
-1           
-1           
-1           
-1           
-1           
-1           
-1           
-1           
-1           
-1           
-1           
-1           
-1           
-1           
-1           
-1           
-1           
-1           
-1           
-1           
-1           
0           
0           
0           
