amp_frame11_dry_md.gbw      
amp_frame11_dry_md.scfp     
 4           
0           
0           
-1           
-1           
-1           
-1           
-1           
-1           
-1           
-1           
-1           
-1           
-1           
-1           
-1           
-1           
-1           
-1           
-1           
-1           
-1           
-1           
-1           
-1           
-1           
-1           
-1           
-1           
-1           
-1           
-1           
-1           
-1           
-1           
-1           
-1           
-1           
-1           
-1           
-1           
-1           
-1           
-1           
-1           
-1           
-1           
-1           
-1           
-1           
-1           
-1           
-1           
-1           
-1           
-1           
-1           
-1           
-1           
-1           
-1           
-1           
-1           
-1           
-1           
-1           
-1           
-1           
-1           
-1           
-1           
-1           
-1           
-1           
-1           
-1           
-1           
-1           
-1           
-1           
-1           
-1           
-1           
-1           
-1           
-1           
-1           
-1           
-1           
-1           
-1           
-1           
-1           
-1           
-1           
-1           
-1           
-1           
-1           
-1           
-1           
-1           
-1           
-1           
-1           
-1           
-1           
-1           
-1           
-1           
-1           
-1           
-1           
-1           
-1           
-1           
-1           
-1           
-1           
-1           
-1           
-1           
-1           
-1           
-1           
-1           
-1           
-1           
-1           
-1           
-1           
-1           
-1           
-1           
-1           
-1           
-1           
-1           
-1           
-1           
-1           
-1           
-1           
-1           
-1           
-1           
-1           
-1           
-1           
-1           
-1           
-1           
-1           
-1           
-1           
-1           
-1           
-1           
-1           
-1           
-1           
-1           
-1           
-1           
-1           
-1           
-1           
-1           
-1           
-1           
-1           
-1           
-1           
-1           
-1           
-1           
-1           
-1           
-1           
-1           
-1           
-1           
-1           
-1           
-1           
-1           
-1           
-1           
-1           
-1           
-1           
-1           
-1           
-1           
-1           
-1           
-1           
-1           
-1           
-1           
-1           
-1           
-1           
-1           
-1           
-1           
-1           
-1           
-1           
-1           
-1           
-1           
-1           
-1           
-1           
-1           
-1           
-1           
-1           
-1           
-1           
-1           
-1           
-1           
-1           
-1           
-1           
-1           
-1           
-1           
-1           
-1           
-1           
-1           
-1           
-1           
-1           
-1           
-1           
-1           
-1           
-1           
-1           
-1           
-1           
-1           
-1           
-1           
-1           
-1           
-1           
-1           
-1           
-1           
-1           
-1           
-1           
-1           
-1           
-1           
-1           
-1           
-1           
-1           
-1           
-1           
-1           
-1           
-1           
-1           
-1           
-1           
-1           
-1           
-1           
-1           
-1           
-1           
-1           
-1           
-1           
-1           
-1           
-1           
-1           
-1           
-1           
-1           
-1           
-1           
-1           
-1           
-1           
-1           
-1           
-1           
-1           
-1           
-1           
-1           
-1           
-1           
-1           
-1           
-1           
-1           
-1           
-1           
-1           
-1           
-1           
-1           
-1           
-1           
-1           
-1           
-1           
-1           
-1           
-1           
-1           
-1           
-1           
-1           
-1           
-1           
-1           
-1           
-1           
-1           
-1           
-1           
-1           
-1           
-1           
-1           
-1           
-1           
-1           
-1           
-1           
-1           
-1           
-1           
-1           
-1           
-1           
-1           
-1           
-1           
-1           
-1           
-1           
-1           
-1           
-1           
-1           
-1           
-1           
-1           
-1           
-1           
-1           
-1           
-1           
-1           
-1           
-1           
-1           
-1           
-1           
-1           
-1           
-1           
-1           
-1           
-1           
-1           
-1           
-1           
-1           
-1           
-1           
-1           
-1           
-1           
-1           
-1           
-1           
-1           
-1           
-1           
-1           
-1           
-1           
-1           
-1           
-1           
-1           
-1           
-1           
-1           
-1           
-1           
-1           
-1           
-1           
-1           
-1           
-1           
-1           
-1           
-1           
-1           
-1           
-1           
-1           
-1           
-1           
-1           
-1           
-1           
-1           
-1           
-1           
-1           
-1           
-1           
-1           
-1           
-1           
-1           
-1           
-1           
-1           
-1           
-1           
-1           
-1           
-1           
-1           
-1           
-1           
-1           
-1           
-1           
-1           
-1           
-1           
-1           
-1           
-1           
-1           
-1           
-1           
-1           
-1           
-1           
-1           
-1           
-1           
-1           
-1           
-1           
-1           
-1           
-1           
-1           
-1           
-1           
-1           
-1           
-1           
-1           
-1           
-1           
-1           
-1           
-1           
-1           
-1           
-1           
-1           
-1           
-1           
-1           
-1           
-1           
-1           
-1           
-1           
-1           
-1           
-1           
-1           
-1           
-1           
-1           
-1           
-1           
-1           
-1           
-1           
-1           
-1           
-1           
-1           
-1           
-1           
-1           
-1           
-1           
-1           
-1           
-1           
-1           
-1           
0           
0           
0           
